
Gurobi 7.0.2 (linux64, Matlab) logging started Sun Sep  2 08:55:05 2018


Gurobi 7.0.2 (linux64) logging started Sun Sep  2 08:55:05 2018

Optimize a model with 1650 rows, 35496 columns and 424338 nonzeros
Coefficient statistics:
  Matrix range     [1e+00, 1e+02]
  Objective range  [1e+02, 1e+07]
  Bounds range     [1e+00, 4e+03]
  RHS range        [1e+00, 2e+03]
Iteration    Objective       Primal Inf.    Dual Inf.      Time
       0    1.7245419e+06   0.000000e+00   0.000000e+00      0s

Solved in 0 iterations and 0.02 seconds
Optimal objective  1.724541933e+06
